14,1	0,0	11,6	8,2	0,0	0,0	0,0	0,0	0,0	11,6
11,0	8,1	0,0	11,1	18,1	0,0	0,0	10,8	0,0	0,0
0,0	0,0	13,9	0,0	14,2	5,4	0,0	0,0	5,5	0,0
6,3	0,0	11,6	0,0	0,0	0,0	12,0	0,0	0,0	0,0
0,0	9,7	0,0	14,5	15,7	0,0	0,0	10,6	0,0	0,0
0,0	10,4	15,7	0,0	9,8	11,1	0,0	0,0	16,3	0,0
0,0	7,2	0,0	6,9	0,0	0,0	5,1	0,0	0,0	9,3
20,0	0,0	8,4	0,0	0,0	0,0	0,0	0,0	0,0	8,0
0,0	10,1	0,0	18,7	11,0	0,0	0,0	17,8	0,0	0,0
0,0	0,0	12,0	0,0	0,0	7,6	14,6	0,0	0,0	14,2
									
2,7	4,9	3,4	4,2	4,6	3,8	2,6	3,3	3,6	4,6
